NAME: region1 
COMMENT: Mitad_derecha 
TYPE: TSP 
DIMENSION: 28
EDGE_WEIGHT_TYPE: EUC_2D 
NODE_COORD_SECTION 
3 345 750
4 945 685
5 845 655
6 880 660
8 525 1000
9 580 1175
10 650 1130
11 1605 620
15 845 680
17 145 665
18 415 635
19 510 875
22 520 585
24 835 625
32 575 665
33 1150 1160
35 685 595
36 685 610
37 770 610
38 795 645
39 720 635
40 760 650
41 475 960
43 875 920
45 555 815
48 830 610
49 605 625
51 1340 725
EOF 
